c description: Random 3-CNF over 15 variables and 30 clauses
p cnf 15 30
3 -8 -11 0
-3 -6 -11 0
1 5 7 0
-1 6 -12 0
-1 2 -7 0
1 8 11 0
8 -11 14 0
5 8 12 0
2 -10 -15 0
-5 -6 9 0
8 -13 15 0
3 -10 11 0
5 14 15 0
-2 -4 8 0
3 -6 9 0
-1 -4 13 0
-4 7 -10 0
5 -6 -14 0
-1 -2 -11 0
-3 5 11 0
5 7 -11 0
-2 6 -10 0
-5 -7 8 0
-9 -12 15 0
-4 6 7 0
-2 -4 9 0
2 3 13 0
3 -4 11 0
-6 8 9 0
1 2 -13 0